p cnf 386 460
14 -20 -11 21 22 0
14 -20 -11 21 -22 0
14 -20 -11 -21 23 0
14 -20 -11 -21 -23 0
-9 4 -14 24 25 0
-9 4 -14 24 -25 0
-9 4 -14 -24 26 0
-9 4 -14 -24 -26 0
-6 -7 -20 27 28 0
-6 -7 -20 27 -28 0
-6 -7 -20 -27 29 0
-6 -7 -20 -27 -29 0
-13 12 -9 30 31 0
-13 12 -9 30 -31 0
-13 12 -9 -30 32 0
-13 12 -9 -30 -32 0
-9 -14 5 33 34 0
-9 -14 5 33 -34 0
-9 -14 5 -33 35 0
-9 -14 5 -33 -35 0
13 -9 -2 36 37 0
13 -9 -2 36 -37 0
13 -9 -2 -36 38 0
13 -9 -2 -36 -38 0
-1 -20 19 39 40 0
-1 -20 19 39 -40 0
-1 -20 19 -39 41 0
-1 -20 19 -39 -41 0
-14 -17 13 42 43 0
-14 -17 13 42 -43 0
-14 -17 13 -42 44 0
-14 -17 13 -42 -44 0
-9 6 1 45 46 0
-9 6 1 45 -46 0
-9 6 1 -45 47 0
-9 6 1 -45 -47 0
-10 11 -18 48 49 0
-10 11 -18 48 -49 0
-10 11 -18 -48 50 0
-10 11 -18 -48 -50 0
-16 20 -2 51 52 0
-16 20 -2 51 -52 0
-16 20 -2 -51 53 0
-16 20 -2 -51 -53 0
-12 -4 13 54 55 0
-12 -4 13 54 -55 0
-12 -4 13 -54 56 0
-12 -4 13 -54 -56 0
17 11 -1 57 58 0
17 11 -1 57 -58 0
17 11 -1 -57 59 0
17 11 -1 -57 -59 0
-19 12 1 60 61 0
-19 12 1 60 -61 0
-19 12 1 -60 62 0
-19 12 1 -60 -62 0
3 -17 -12 63 64 0
3 -17 -12 63 -64 0
3 -17 -12 -63 65 0
3 -17 -12 -63 -65 0
-14 6 -17 66 67 0
-14 6 -17 66 -67 0
-14 6 -17 -66 68 0
-14 6 -17 -66 -68 0
-8 15 -3 69 70 0
-8 15 -3 69 -70 0
-8 15 -3 -69 71 0
-8 15 -3 -69 -71 0
4 -1 -10 72 73 0
4 -1 -10 72 -73 0
4 -1 -10 -72 74 0
4 -1 -10 -72 -74 0
-19 10 -4 75 76 0
-19 10 -4 75 -76 0
-19 10 -4 -75 77 0
-19 10 -4 -75 -77 0
-1 -11 -9 78 79 0
-1 -11 -9 78 -79 0
-1 -11 -9 -78 80 0
-1 -11 -9 -78 -80 0
10 -5 4 81 82 0
10 -5 4 81 -82 0
10 -5 4 -81 83 0
10 -5 4 -81 -83 0
5 6 1 84 85 0
5 6 1 84 -85 0
5 6 1 -84 86 0
5 6 1 -84 -86 0
-7 -9 -6 87 88 0
-7 -9 -6 87 -88 0
-7 -9 -6 -87 89 0
-7 -9 -6 -87 -89 0
-9 11 -6 90 91 0
-9 11 -6 90 -91 0
-9 11 -6 -90 92 0
-9 11 -6 -90 -92 0
-4 10 -5 93 94 0
-4 10 -5 93 -94 0
-4 10 -5 -93 95 0
-4 10 -5 -93 -95 0
-10 -20 -14 96 97 0
-10 -20 -14 96 -97 0
-10 -20 -14 -96 98 0
-10 -20 -14 -96 -98 0
1 5 -8 99 100 0
1 5 -8 99 -100 0
1 5 -8 -99 101 0
1 5 -8 -99 -101 0
18 12 -11 102 103 0
18 12 -11 102 -103 0
18 12 -11 -102 104 0
18 12 -11 -102 -104 0
1 14 -12 105 106 0
1 14 -12 105 -106 0
1 14 -12 -105 107 0
1 14 -12 -105 -107 0
-19 12 -6 108 109 0
-19 12 -6 108 -109 0
-19 12 -6 -108 110 0
-19 12 -6 -108 -110 0
10 7 9 111 112 0
10 7 9 111 -112 0
10 7 9 -111 113 0
10 7 9 -111 -113 0
-6 -9 -10 114 115 0
-6 -9 -10 114 -115 0
-6 -9 -10 -114 116 0
-6 -9 -10 -114 -116 0
-7 16 -6 117 118 0
-7 16 -6 117 -118 0
-7 16 -6 -117 119 0
-7 16 -6 -117 -119 0
17 -6 -7 120 121 0
17 -6 -7 120 -121 0
17 -6 -7 -120 122 0
17 -6 -7 -120 -122 0
2 -14 -5 123 124 0
2 -14 -5 123 -124 0
2 -14 -5 -123 125 0
2 -14 -5 -123 -125 0
-3 2 18 126 127 0
-3 2 18 126 -127 0
-3 2 18 -126 128 0
-3 2 18 -126 -128 0
20 12 11 129 130 0
20 12 11 129 -130 0
20 12 11 -129 131 0
20 12 11 -129 -131 0
4 11 10 132 133 0
4 11 10 132 -133 0
4 11 10 -132 134 0
4 11 10 -132 -134 0
-5 14 10 135 136 0
-5 14 10 135 -136 0
-5 14 10 -135 137 0
-5 14 10 -135 -137 0
15 -2 -8 138 139 0
15 -2 -8 138 -139 0
15 -2 -8 -138 140 0
15 -2 -8 -138 -140 0
-5 -16 -2 141 142 0
-5 -16 -2 141 -142 0
-5 -16 -2 -141 143 0
-5 -16 -2 -141 -143 0
-8 5 17 144 145 0
-8 5 17 144 -145 0
-8 5 17 -144 146 0
-8 5 17 -144 -146 0
20 18 -15 147 148 0
20 18 -15 147 -148 0
20 18 -15 -147 149 0
20 18 -15 -147 -149 0
-3 -11 12 150 151 0
-3 -11 12 150 -151 0
-3 -11 12 -150 152 0
-3 -11 12 -150 -152 0
12 -2 -8 153 154 0
12 -2 -8 153 -154 0
12 -2 -8 -153 155 0
12 -2 -8 -153 -155 0
20 -16 7 156 157 0
20 -16 7 156 -157 0
20 -16 7 -156 158 0
20 -16 7 -156 -158 0
14 -2 -7 159 160 0
14 -2 -7 159 -160 0
14 -2 -7 -159 161 0
14 -2 -7 -159 -161 0
-17 18 -13 162 163 0
-17 18 -13 162 -163 0
-17 18 -13 -162 164 0
-17 18 -13 -162 -164 0
11 -8 -4 165 166 0
11 -8 -4 165 -166 0
11 -8 -4 -165 167 0
11 -8 -4 -165 -167 0
-8 -10 -19 168 169 0
-8 -10 -19 168 -169 0
-8 -10 -19 -168 170 0
-8 -10 -19 -168 -170 0
7 -14 15 171 172 0
7 -14 15 171 -172 0
7 -14 15 -171 173 0
7 -14 15 -171 -173 0
8 -2 -17 174 175 0
8 -2 -17 174 -175 0
8 -2 -17 -174 176 0
8 -2 -17 -174 -176 0
3 9 -4 177 178 0
3 9 -4 177 -178 0
3 9 -4 -177 179 0
3 9 -4 -177 -179 0
-17 5 16 180 181 0
-17 5 16 180 -181 0
-17 5 16 -180 182 0
-17 5 16 -180 -182 0
-4 -1 18 183 184 0
-4 -1 18 183 -184 0
-4 -1 18 -183 185 0
-4 -1 18 -183 -185 0
11 -12 -18 186 187 0
11 -12 -18 186 -187 0
11 -12 -18 -186 188 0
11 -12 -18 -186 -188 0
13 -7 14 189 190 0
13 -7 14 189 -190 0
13 -7 14 -189 191 0
13 -7 14 -189 -191 0
3 15 -18 192 193 0
3 15 -18 192 -193 0
3 15 -18 -192 194 0
3 15 -18 -192 -194 0
-1 -20 4 195 196 0
-1 -20 4 195 -196 0
-1 -20 4 -195 197 0
-1 -20 4 -195 -197 0
-19 -18 6 198 199 0
-19 -18 6 198 -199 0
-19 -18 6 -198 200 0
-19 -18 6 -198 -200 0
-20 -6 -15 201 202 0
-20 -6 -15 201 -202 0
-20 -6 -15 -201 203 0
-20 -6 -15 -201 -203 0
10 -4 -20 204 205 0
10 -4 -20 204 -205 0
10 -4 -20 -204 206 0
10 -4 -20 -204 -206 0
13 16 6 207 208 0
13 16 6 207 -208 0
13 16 6 -207 209 0
13 16 6 -207 -209 0
-9 2 -13 210 211 0
-9 2 -13 210 -211 0
-9 2 -13 -210 212 0
-9 2 -13 -210 -212 0
-16 -20 4 213 214 0
-16 -20 4 213 -214 0
-16 -20 4 -213 215 0
-16 -20 4 -213 -215 0
12 -20 -2 216 217 0
12 -20 -2 216 -217 0
12 -20 -2 -216 218 0
12 -20 -2 -216 -218 0
18 14 -1 219 220 0
18 14 -1 219 -220 0
18 14 -1 -219 221 0
18 14 -1 -219 -221 0
2 -10 -3 222 223 0
2 -10 -3 222 -223 0
2 -10 -3 -222 224 0
2 -10 -3 -222 -224 0
5 7 4 225 226 0
5 7 4 225 -226 0
5 7 4 -225 227 0
5 7 4 -225 -227 0
18 9 -5 228 229 0
18 9 -5 228 -229 0
18 9 -5 -228 230 0
18 9 -5 -228 -230 0
1 -3 12 231 232 0
1 -3 12 231 -232 0
1 -3 12 -231 233 0
1 -3 12 -231 -233 0
8 -7 20 234 235 0
8 -7 20 234 -235 0
8 -7 20 -234 236 0
8 -7 20 -234 -236 0
20 -13 -15 237 238 0
20 -13 -15 237 -238 0
20 -13 -15 -237 239 0
20 -13 -15 -237 -239 0
-14 1 20 240 241 0
-14 1 20 240 -241 0
-14 1 20 -240 242 0
-14 1 20 -240 -242 0
20 18 -4 243 244 0
20 18 -4 243 -244 0
20 18 -4 -243 245 0
20 18 -4 -243 -245 0
-10 -3 -7 246 247 0
-10 -3 -7 246 -247 0
-10 -3 -7 -246 248 0
-10 -3 -7 -246 -248 0
-7 -2 -13 249 250 0
-7 -2 -13 249 -250 0
-7 -2 -13 -249 251 0
-7 -2 -13 -249 -251 0
-14 7 11 252 253 0
-14 7 11 252 -253 0
-14 7 11 -252 254 0
-14 7 11 -252 -254 0
10 -3 8 255 256 0
10 -3 8 255 -256 0
10 -3 8 -255 257 0
10 -3 8 -255 -257 0
-5 8 11 258 259 0
-5 8 11 258 -259 0
-5 8 11 -258 260 0
-5 8 11 -258 -260 0
4 11 13 261 262 0
4 11 13 261 -262 0
4 11 13 -261 263 0
4 11 13 -261 -263 0
10 9 -18 264 265 0
10 9 -18 264 -265 0
10 9 -18 -264 266 0
10 9 -18 -264 -266 0
-17 -10 5 267 268 0
-17 -10 5 267 -268 0
-17 -10 5 -267 269 0
-17 -10 5 -267 -269 0
-3 -15 11 270 271 0
-3 -15 11 270 -271 0
-3 -15 11 -270 272 0
-3 -15 11 -270 -272 0
18 -4 -10 273 274 0
18 -4 -10 273 -274 0
18 -4 -10 -273 275 0
18 -4 -10 -273 -275 0
15 2 -9 276 277 0
15 2 -9 276 -277 0
15 2 -9 -276 278 0
15 2 -9 -276 -278 0
12 -14 5 279 280 0
12 -14 5 279 -280 0
12 -14 5 -279 281 0
12 -14 5 -279 -281 0
3 14 16 282 283 0
3 14 16 282 -283 0
3 14 16 -282 284 0
3 14 16 -282 -284 0
16 10 2 285 286 0
16 10 2 285 -286 0
16 10 2 -285 287 0
16 10 2 -285 -287 0
-7 18 5 288 289 0
-7 18 5 288 -289 0
-7 18 5 -288 290 0
-7 18 5 -288 -290 0
14 1 4 291 292 0
14 1 4 291 -292 0
14 1 4 -291 293 0
14 1 4 -291 -293 0
294 295 297 301 309 0
294 295 297 301 -309 0
294 295 297 -301 310 0
294 295 297 -301 -310 0
294 295 -297 302 311 0
294 295 -297 302 -311 0
294 295 -297 -302 312 0
294 295 -297 -302 -312 0
294 -295 298 303 313 0
294 -295 298 303 -313 0
294 -295 298 -303 314 0
294 -295 298 -303 -314 0
294 -295 -298 304 315 0
294 -295 -298 304 -315 0
294 -295 -298 -304 316 0
294 -295 -298 -304 -316 0
-294 296 299 305 317 0
-294 296 299 305 -317 0
-294 296 299 -305 318 0
-294 296 299 -305 -318 0
-294 296 -299 306 319 0
-294 296 -299 306 -319 0
-294 296 -299 -306 320 0
-294 296 -299 -306 -320 0
-294 -296 300 307 321 0
-294 -296 300 307 -321 0
-294 -296 300 -307 322 0
-294 -296 300 -307 -322 0
-294 -296 -300 308 323 0
-294 -296 -300 308 -323 0
-294 -296 -300 -308 324 0
-294 -296 -300 -308 -324 0
325 326 328 332 340 0
325 326 328 332 -340 0
325 326 328 -332 341 0
325 326 328 -332 -341 0
325 326 -328 333 342 0
325 326 -328 333 -342 0
325 326 -328 -333 343 0
325 326 -328 -333 -343 0
325 -326 329 334 344 0
325 -326 329 334 -344 0
325 -326 329 -334 345 0
325 -326 329 -334 -345 0
325 -326 -329 335 346 0
325 -326 -329 335 -346 0
325 -326 -329 -335 347 0
325 -326 -329 -335 -347 0
-325 327 330 336 348 0
-325 327 330 336 -348 0
-325 327 330 -336 349 0
-325 327 330 -336 -349 0
-325 327 -330 337 350 0
-325 327 -330 337 -350 0
-325 327 -330 -337 351 0
-325 327 -330 -337 -351 0
-325 -327 331 338 352 0
-325 -327 331 338 -352 0
-325 -327 331 -338 353 0
-325 -327 331 -338 -353 0
-325 -327 -331 339 354 0
-325 -327 -331 339 -354 0
-325 -327 -331 -339 355 0
-325 -327 -331 -339 -355 0
356 357 359 363 371 0
356 357 359 363 -371 0
356 357 359 -363 372 0
356 357 359 -363 -372 0
356 357 -359 364 373 0
356 357 -359 364 -373 0
356 357 -359 -364 374 0
356 357 -359 -364 -374 0
356 -357 360 365 375 0
356 -357 360 365 -375 0
356 -357 360 -365 376 0
356 -357 360 -365 -376 0
356 -357 -360 366 377 0
356 -357 -360 366 -377 0
356 -357 -360 -366 378 0
356 -357 -360 -366 -378 0
-356 358 361 367 379 0
-356 358 361 367 -379 0
-356 358 361 -367 380 0
-356 358 361 -367 -380 0
-356 358 -361 368 381 0
-356 358 -361 368 -381 0
-356 358 -361 -368 382 0
-356 358 -361 -368 -382 0
-356 -358 362 369 383 0
-356 -358 362 369 -383 0
-356 -358 362 -369 384 0
-356 -358 362 -369 -384 0
-356 -358 -362 370 385 0
-356 -358 -362 370 -385 0
-356 -358 -362 -370 386 0
-356 -358 -362 -370 -386 0

